-186.0 9.0 4.0 6.0 4.0 9.0 8.0 9.0 1.0 10.0 6.0 2.0 7.0 2.0 0.0 4.0 0.0 10.0 10.0 2.0 10.0 1.0 4.0 0.0 7.0 1.0 2.0 4.0 9.0 3.0 2.0 7.0 4.0 3.0 7.0 4.0 10.0 3.0 2.0 0.0 0.0 
9.0 -175.0 5.0 5.0 2.0 1.0 3.0 5.0 3.0 8.0 3.0 6.0 6.0 3.0 9.0 3.0 3.0 2.0 6.0 3.0 3.0 5.0 5.0 9.0 8.0 3.0 7.0 6.0 3.0 5.0 3.0 2.0 10.0 4.0 10.0 7.0 0.0 0.0 0.0 0.0 0.0 
4.0 5.0 -164.0 1.0 4.0 0.0 8.0 5.0 0.0 10.0 0.0 0.0 6.0 2.0 6.0 9.0 2.0 1.0 0.0 6.0 0.0 4.0 6.0 4.0 8.0 3.0 3.0 2.0 7.0 1.0 1.0 1.0 5.0 6.0 7.0 9.0 5.0 9.0 5.0 9.0 0.0 
6.0 5.0 1.0 -200.0 9.0 4.0 4.0 9.0 7.0 2.0 3.0 9.0 7.0 0.0 8.0 0.0 0.0 1.0 1.0 0.0 1.0 8.0 10.0 9.0 6.0 8.0 6.0 0.0 2.0 5.0 8.0 9.0 4.0 2.0 4.0 9.0 7.0 9.0 10.0 1.0 6.0 
4.0 2.0 4.0 9.0 -191.0 5.0 3.0 0.0 1.0 0.0 0.0 5.0 2.0 4.0 6.0 0.0 10.0 1.0 5.0 7.0 5.0 0.0 3.0 10.0 4.0 7.0 3.0 7.0 9.0 0.0 2.0 9.0 5.0 10.0 5.0 8.0 3.0 9.0 10.0 10.0 4.0 
9.0 1.0 0.0 4.0 5.0 -204.0 5.0 6.0 6.0 3.0 8.0 6.0 7.0 2.0 4.0 4.0 5.0 8.0 10.0 7.0 10.0 4.0 5.0 0.0 7.0 2.0 7.0 6.0 0.0 5.0 10.0 10.0 7.0 7.0 8.0 4.0 1.0 0.0 0.0 5.0 6.0 
8.0 3.0 8.0 4.0 3.0 5.0 -230.0 5.0 8.0 7.0 8.0 10.0 3.0 10.0 9.0 8.0 7.0 7.0 6.0 5.0 10.0 4.0 7.0 2.0 1.0 2.0 3.0 8.0 7.0 9.0 8.0 5.0 8.0 7.0 1.0 6.0 2.0 2.0 3.0 10.0 1.0 
9.0 5.0 5.0 9.0 0.0 6.0 5.0 -212.0 3.0 4.0 8.0 10.0 2.0 3.0 5.0 4.0 0.0 4.0 8.0 1.0 10.0 10.0 6.0 1.0 4.0 8.0 2.0 3.0 8.0 1.0 9.0 8.0 8.0 1.0 9.0 10.0 2.0 8.0 4.0 5.0 4.0 
1.0 3.0 0.0 7.0 1.0 6.0 8.0 3.0 -198.0 4.0 8.0 1.0 5.0 6.0 3.0 7.0 6.0 6.0 5.0 10.0 0.0 8.0 5.0 9.0 9.0 5.0 2.0 7.0 4.0 3.0 9.0 8.0 0.0 4.0 10.0 8.0 0.0 3.0 4.0 1.0 9.0 
10.0 8.0 10.0 2.0 0.0 3.0 7.0 4.0 4.0 -216.0 9.0 7.0 5.0 4.0 7.0 6.0 3.0 1.0 3.0 6.0 9.0 10.0 3.0 10.0 0.0 6.0 8.0 6.0 7.0 4.0 2.0 4.0 2.0 6.0 9.0 7.0 0.0 8.0 5.0 4.0 7.0 
6.0 3.0 0.0 3.0 0.0 8.0 8.0 8.0 8.0 9.0 -171.0 1.0 8.0 3.0 10.0 7.0 1.0 2.0 5.0 3.0 0.0 7.0 7.0 0.0 3.0 1.0 4.0 1.0 6.0 6.0 9.0 7.0 4.0 2.0 9.0 2.0 0.0 0.0 2.0 6.0 2.0 
2.0 6.0 0.0 9.0 5.0 6.0 10.0 10.0 1.0 7.0 1.0 -181.0 7.0 8.0 3.0 0.0 8.0 3.0 3.0 10.0 10.0 0.0 3.0 2.0 3.0 6.0 3.0 1.0 0.0 10.0 10.0 4.0 0.0 5.0 0.0 10.0 1.0 1.0 2.0 5.0 6.0 
7.0 6.0 6.0 7.0 2.0 7.0 3.0 2.0 5.0 5.0 8.0 7.0 -215.0 4.0 7.0 9.0 8.0 10.0 5.0 10.0 10.0 1.0 0.0 2.0 4.0 2.0 1.0 10.0 6.0 2.0 4.0 6.0 5.0 2.0 1.0 9.0 10.0 9.0 1.0 4.0 8.0 
2.0 3.0 2.0 0.0 4.0 2.0 10.0 3.0 6.0 4.0 3.0 8.0 4.0 -190.0 3.0 7.0 8.0 5.0 0.0 4.0 8.0 6.0 2.0 7.0 5.0 7.0 0.0 4.0 4.0 7.0 10.0 9.0 3.0 10.0 3.0 10.0 2.0 4.0 0.0 5.0 6.0 
0.0 9.0 6.0 8.0 6.0 4.0 9.0 5.0 3.0 7.0 10.0 3.0 7.0 3.0 -202.0 3.0 7.0 2.0 6.0 3.0 9.0 1.0 6.0 8.0 4.0 9.0 3.0 8.0 9.0 3.0 1.0 0.0 2.0 8.0 0.0 0.0 8.0 2.0 1.0 9.0 10.0 
4.0 3.0 9.0 0.0 0.0 4.0 8.0 4.0 7.0 6.0 7.0 0.0 9.0 7.0 3.0 -189.0 6.0 7.0 2.0 9.0 5.0 4.0 10.0 7.0 1.0 10.0 1.0 3.0 5.0 3.0 8.0 8.0 4.0 3.0 3.0 8.0 0.0 0.0 7.0 3.0 1.0 
0.0 3.0 2.0 0.0 10.0 5.0 7.0 0.0 6.0 3.0 1.0 8.0 8.0 8.0 7.0 6.0 -200.0 2.0 3.0 6.0 8.0 6.0 5.0 2.0 4.0 2.0 9.0 4.0 9.0 1.0 1.0 8.0 8.0 9.0 8.0 2.0 6.0 6.0 3.0 4.0 10.0 
10.0 2.0 1.0 1.0 1.0 8.0 7.0 4.0 6.0 1.0 2.0 3.0 10.0 5.0 2.0 7.0 2.0 -181.0 10.0 1.0 9.0 4.0 10.0 10.0 0.0 7.0 4.0 0.0 1.0 9.0 2.0 5.0 4.0 3.0 8.0 0.0 1.0 2.0 0.0 9.0 10.0 
10.0 6.0 0.0 1.0 5.0 10.0 6.0 8.0 5.0 3.0 5.0 3.0 5.0 0.0 6.0 2.0 3.0 10.0 -199.0 3.0 4.0 10.0 7.0 0.0 7.0 9.0 4.0 0.0 1.0 3.0 2.0 6.0 3.0 10.0 9.0 8.0 10.0 2.0 7.0 2.0 4.0 
2.0 3.0 6.0 0.0 7.0 7.0 5.0 1.0 10.0 6.0 3.0 10.0 10.0 4.0 3.0 9.0 6.0 1.0 3.0 -190.0 0.0 9.0 6.0 0.0 10.0 0.0 3.0 6.0 10.0 5.0 8.0 0.0 4.0 6.0 3.0 4.0 9.0 2.0 3.0 5.0 1.0 
10.0 3.0 0.0 1.0 5.0 10.0 10.0 10.0 0.0 9.0 0.0 10.0 10.0 8.0 9.0 5.0 8.0 9.0 4.0 0.0 -213.0 5.0 3.0 4.0 0.0 8.0 1.0 5.0 8.0 1.0 10.0 1.0 9.0 2.0 4.0 5.0 5.0 10.0 3.0 7.0 1.0 
1.0 5.0 4.0 8.0 0.0 4.0 4.0 10.0 8.0 10.0 7.0 0.0 1.0 6.0 1.0 4.0 6.0 4.0 10.0 9.0 5.0 -193.0 3.0 2.0 0.0 7.0 5.0 0.0 0.0 10.0 7.0 5.0 2.0 6.0 1.0 9.0 7.0 5.0 9.0 0.0 8.0 
4.0 5.0 6.0 10.0 3.0 5.0 7.0 6.0 5.0 3.0 7.0 3.0 0.0 2.0 6.0 10.0 5.0 10.0 7.0 6.0 3.0 3.0 -202.0 9.0 5.0 7.0 4.0 0.0 10.0 0.0 0.0 4.0 4.0 0.0 5.0 7.0 7.0 9.0 0.0 9.0 6.0 
0.0 9.0 4.0 9.0 10.0 0.0 2.0 1.0 9.0 10.0 0.0 2.0 2.0 7.0 8.0 7.0 2.0 10.0 0.0 0.0 4.0 2.0 9.0 -188.0 8.0 10.0 10.0 4.0 0.0 0.0 6.0 2.0 9.0 1.0 8.0 2.0 9.0 0.0 7.0 5.0 0.0 
7.0 8.0 8.0 6.0 4.0 7.0 1.0 4.0 9.0 0.0 3.0 3.0 4.0 5.0 4.0 1.0 4.0 0.0 7.0 10.0 0.0 0.0 5.0 8.0 -178.0 9.0 3.0 4.0 0.0 3.0 10.0 0.0 4.0 7.0 5.0 8.0 0.0 4.0 6.0 2.0 5.0 
1.0 3.0 3.0 8.0 7.0 2.0 2.0 8.0 5.0 6.0 1.0 6.0 2.0 7.0 9.0 10.0 2.0 7.0 9.0 0.0 8.0 7.0 7.0 10.0 9.0 -219.0 4.0 5.0 8.0 9.0 5.0 1.0 8.0 5.0 6.0 3.0 4.0 3.0 8.0 5.0 6.0 
2.0 7.0 3.0 6.0 3.0 7.0 3.0 2.0 2.0 8.0 4.0 3.0 1.0 0.0 3.0 1.0 9.0 4.0 4.0 3.0 1.0 5.0 4.0 10.0 3.0 4.0 -156.0 5.0 2.0 5.0 3.0 2.0 3.0 3.0 10.0 7.0 0.0 3.0 0.0 10.0 1.0 
4.0 6.0 2.0 0.0 7.0 6.0 8.0 3.0 7.0 6.0 1.0 1.0 10.0 4.0 8.0 3.0 4.0 0.0 0.0 6.0 5.0 0.0 0.0 4.0 4.0 5.0 5.0 -153.0 3.0 3.0 2.0 3.0 2.0 7.0 0.0 4.0 3.0 7.0 5.0 4.0 1.0 
9.0 3.0 7.0 2.0 9.0 0.0 7.0 8.0 4.0 7.0 6.0 0.0 6.0 4.0 9.0 5.0 9.0 1.0 1.0 10.0 8.0 0.0 10.0 0.0 0.0 8.0 2.0 3.0 -202.0 9.0 9.0 3.0 10.0 2.0 9.0 6.0 3.0 3.0 3.0 6.0 1.0 
3.0 5.0 1.0 5.0 0.0 5.0 9.0 1.0 3.0 4.0 6.0 10.0 2.0 7.0 3.0 3.0 1.0 9.0 3.0 5.0 1.0 10.0 0.0 0.0 3.0 9.0 5.0 3.0 9.0 -174.0 0.0 8.0 7.0 2.0 9.0 9.0 0.0 6.0 0.0 7.0 1.0 
2.0 3.0 1.0 8.0 2.0 10.0 8.0 9.0 9.0 2.0 9.0 10.0 4.0 10.0 1.0 8.0 1.0 2.0 2.0 8.0 10.0 7.0 0.0 6.0 10.0 5.0 3.0 2.0 9.0 0.0 -199.0 5.0 7.0 9.0 2.0 2.0 3.0 1.0 1.0 1.0 7.0 
7.0 2.0 1.0 9.0 9.0 10.0 5.0 8.0 8.0 4.0 7.0 4.0 6.0 9.0 0.0 8.0 8.0 5.0 6.0 0.0 1.0 5.0 4.0 2.0 0.0 1.0 2.0 3.0 3.0 8.0 5.0 -198.0 7.0 1.0 7.0 4.0 8.0 10.0 5.0 6.0 0.0 
4.0 10.0 5.0 4.0 5.0 7.0 8.0 8.0 0.0 2.0 4.0 0.0 5.0 3.0 2.0 4.0 8.0 4.0 3.0 4.0 9.0 2.0 4.0 9.0 4.0 8.0 3.0 2.0 10.0 7.0 7.0 7.0 -201.0 3.0 4.0 1.0 6.0 0.0 10.0 10.0 5.0 
3.0 4.0 6.0 2.0 10.0 7.0 7.0 1.0 4.0 6.0 2.0 5.0 2.0 10.0 8.0 3.0 9.0 3.0 10.0 6.0 2.0 6.0 0.0 1.0 7.0 5.0 3.0 7.0 2.0 2.0 9.0 1.0 3.0 -196.0 9.0 7.0 7.0 9.0 0.0 2.0 6.0 
7.0 10.0 7.0 4.0 5.0 8.0 1.0 9.0 10.0 9.0 9.0 0.0 1.0 3.0 0.0 3.0 8.0 8.0 9.0 3.0 4.0 1.0 5.0 8.0 5.0 6.0 10.0 0.0 9.0 9.0 2.0 7.0 4.0 9.0 -223.0 8.0 5.0 3.0 6.0 6.0 2.0 
4.0 7.0 9.0 9.0 8.0 4.0 6.0 10.0 8.0 7.0 2.0 10.0 9.0 10.0 0.0 8.0 2.0 0.0 8.0 4.0 5.0 9.0 7.0 2.0 8.0 3.0 7.0 4.0 6.0 9.0 2.0 4.0 1.0 7.0 8.0 -225.0 3.0 4.0 3.0 0.0 8.0 
10.0 0.0 5.0 7.0 3.0 1.0 2.0 2.0 0.0 0.0 0.0 1.0 10.0 2.0 8.0 0.0 6.0 1.0 10.0 9.0 5.0 7.0 7.0 9.0 0.0 4.0 0.0 3.0 3.0 0.0 3.0 8.0 6.0 7.0 5.0 3.0 -171.0 9.0 2.0 4.0 9.0 
3.0 0.0 9.0 9.0 9.0 0.0 2.0 8.0 3.0 8.0 0.0 1.0 9.0 4.0 2.0 0.0 6.0 2.0 2.0 2.0 10.0 5.0 9.0 0.0 4.0 3.0 3.0 7.0 3.0 6.0 1.0 10.0 0.0 9.0 3.0 4.0 9.0 -185.0 6.0 6.0 8.0 
2.0 0.0 5.0 10.0 10.0 0.0 3.0 4.0 4.0 5.0 2.0 2.0 1.0 0.0 1.0 7.0 3.0 0.0 7.0 3.0 3.0 9.0 0.0 7.0 6.0 8.0 0.0 5.0 3.0 0.0 1.0 5.0 10.0 0.0 6.0 3.0 2.0 6.0 -160.0 9.0 8.0 
0.0 0.0 9.0 1.0 10.0 5.0 10.0 5.0 1.0 4.0 6.0 5.0 4.0 5.0 9.0 3.0 4.0 9.0 2.0 5.0 7.0 0.0 9.0 5.0 2.0 5.0 10.0 4.0 6.0 7.0 1.0 6.0 10.0 2.0 6.0 0.0 4.0 6.0 9.0 -206.0 10.0 
0.0 0.0 0.0 6.0 4.0 6.0 1.0 4.0 9.0 7.0 2.0 6.0 8.0 6.0 10.0 1.0 10.0 10.0 4.0 1.0 1.0 8.0 6.0 0.0 5.0 6.0 1.0 1.0 1.0 1.0 7.0 0.0 5.0 6.0 2.0 8.0 9.0 8.0 8.0 10.0 -188.0 

